(set-logic QF_LRA)
(declare-fun X0 () Real )
(declare-fun Y0 () Real )
(declare-fun X1 () Real )
(declare-fun Y1 () Real )
(declare-fun X2 () Real )
(declare-fun Y2 () Real )
(declare-fun X3 () Real )
(declare-fun Y3 () Real )
(declare-fun X4 () Real )
(declare-fun Y4 () Real )
(declare-fun X5 () Real )
(declare-fun Y5 () Real )
(declare-fun X6 () Real )
(declare-fun Y6 () Real )
(declare-fun X7 () Real )
(declare-fun Y7 () Real )
(declare-fun X8 () Real )
(declare-fun Y8 () Real )
(declare-fun X9 () Real )
(declare-fun Y9 () Real )
(declare-fun X10 () Real )
(declare-fun Y10 () Real )
(declare-fun X11 () Real )
(declare-fun Y11 () Real )
(declare-fun X12 () Real )
(declare-fun Y12 () Real )
(declare-fun X13 () Real )
(declare-fun Y13 () Real )
(declare-fun X14 () Real )
(declare-fun Y14 () Real )
(declare-fun Z () Real )
(declare-fun k () Real )
(assert (let
(( $goal (>= Z k) ))
(let
((
$phi ( and 
( or ( <= ( + X0 48 ) X1 )  ( <= ( + X1 2 ) X0 )  ( <= ( + Y0 66 ) Y1 )  ( <= ( + Y1 49 ) Y0 )  )
( or ( <= ( + X0 48 ) X2 )  ( <= ( + X2 7 ) X0 )  ( <= ( + Y0 66 ) Y2 )  ( <= ( + Y2 41 ) Y0 )  )
( or ( <= ( + X0 48 ) X3 )  ( <= ( + X3 79 ) X0 )  ( <= ( + Y0 66 ) Y3 )  ( <= ( + Y3 86 ) Y0 )  )
( or ( <= ( + X0 48 ) X4 )  ( <= ( + X4 54 ) X0 )  ( <= ( + Y0 66 ) Y4 )  ( <= ( + Y4 78 ) Y0 )  )
( or ( <= ( + X0 48 ) X5 )  ( <= ( + X5 72 ) X0 )  ( <= ( + Y0 66 ) Y5 )  ( <= ( + Y5 44 ) Y0 )  )
( or ( <= ( + X0 48 ) X6 )  ( <= ( + X6 64 ) X0 )  ( <= ( + Y0 66 ) Y6 )  ( <= ( + Y6 84 ) Y0 )  )
( or ( <= ( + X0 48 ) X7 )  ( <= ( + X7 73 ) X0 )  ( <= ( + Y0 66 ) Y7 )  ( <= ( + Y7 60 ) Y0 )  )
( or ( <= ( + X0 48 ) X8 )  ( <= ( + X8 54 ) X0 )  ( <= ( + Y0 66 ) Y8 )  ( <= ( + Y8 15 ) Y0 )  )
( or ( <= ( + X0 48 ) X9 )  ( <= ( + X9 51 ) X0 )  ( <= ( + Y0 66 ) Y9 )  ( <= ( + Y9 20 ) Y0 )  )
( or ( <= ( + X0 48 ) X10 )  ( <= ( + X10 100 ) X0 )  ( <= ( + Y0 66 ) Y10 )  ( <= ( + Y10 8 ) Y0 )  )
( or ( <= ( + X0 48 ) X11 )  ( <= ( + X11 14 ) X0 )  ( <= ( + Y0 66 ) Y11 )  ( <= ( + Y11 11 ) Y0 )  )
( or ( <= ( + X0 48 ) X12 )  ( <= ( + X12 41 ) X0 )  ( <= ( + Y0 66 ) Y12 )  ( <= ( + Y12 10 ) Y0 )  )
( or ( <= ( + X0 48 ) X13 )  ( <= ( + X13 33 ) X0 )  ( <= ( + Y0 66 ) Y13 )  ( <= ( + Y13 67 ) Y0 )  )
( or ( <= ( + X0 48 ) X14 )  ( <= ( + X14 67 ) X0 )  ( <= ( + Y0 66 ) Y14 )  ( <= ( + Y14 85 ) Y0 )  )
( or ( <= ( + X1 2 ) X2 )  ( <= ( + X2 7 ) X1 )  ( <= ( + Y1 49 ) Y2 )  ( <= ( + Y2 41 ) Y1 )  )
( or ( <= ( + X1 2 ) X3 )  ( <= ( + X3 79 ) X1 )  ( <= ( + Y1 49 ) Y3 )  ( <= ( + Y3 86 ) Y1 )  )
( or ( <= ( + X1 2 ) X4 )  ( <= ( + X4 54 ) X1 )  ( <= ( + Y1 49 ) Y4 )  ( <= ( + Y4 78 ) Y1 )  )
( or ( <= ( + X1 2 ) X5 )  ( <= ( + X5 72 ) X1 )  ( <= ( + Y1 49 ) Y5 )  ( <= ( + Y5 44 ) Y1 )  )
( or ( <= ( + X1 2 ) X6 )  ( <= ( + X6 64 ) X1 )  ( <= ( + Y1 49 ) Y6 )  ( <= ( + Y6 84 ) Y1 )  )
( or ( <= ( + X1 2 ) X7 )  ( <= ( + X7 73 ) X1 )  ( <= ( + Y1 49 ) Y7 )  ( <= ( + Y7 60 ) Y1 )  )
( or ( <= ( + X1 2 ) X8 )  ( <= ( + X8 54 ) X1 )  ( <= ( + Y1 49 ) Y8 )  ( <= ( + Y8 15 ) Y1 )  )
( or ( <= ( + X1 2 ) X9 )  ( <= ( + X9 51 ) X1 )  ( <= ( + Y1 49 ) Y9 )  ( <= ( + Y9 20 ) Y1 )  )
( or ( <= ( + X1 2 ) X10 )  ( <= ( + X10 100 ) X1 )  ( <= ( + Y1 49 ) Y10 )  ( <= ( + Y10 8 ) Y1 )  )
( or ( <= ( + X1 2 ) X11 )  ( <= ( + X11 14 ) X1 )  ( <= ( + Y1 49 ) Y11 )  ( <= ( + Y11 11 ) Y1 )  )
( or ( <= ( + X1 2 ) X12 )  ( <= ( + X12 41 ) X1 )  ( <= ( + Y1 49 ) Y12 )  ( <= ( + Y12 10 ) Y1 )  )
( or ( <= ( + X1 2 ) X13 )  ( <= ( + X13 33 ) X1 )  ( <= ( + Y1 49 ) Y13 )  ( <= ( + Y13 67 ) Y1 )  )
( or ( <= ( + X1 2 ) X14 )  ( <= ( + X14 67 ) X1 )  ( <= ( + Y1 49 ) Y14 )  ( <= ( + Y14 85 ) Y1 )  )
( or ( <= ( + X2 7 ) X3 )  ( <= ( + X3 79 ) X2 )  ( <= ( + Y2 41 ) Y3 )  ( <= ( + Y3 86 ) Y2 )  )
( or ( <= ( + X2 7 ) X4 )  ( <= ( + X4 54 ) X2 )  ( <= ( + Y2 41 ) Y4 )  ( <= ( + Y4 78 ) Y2 )  )
( or ( <= ( + X2 7 ) X5 )  ( <= ( + X5 72 ) X2 )  ( <= ( + Y2 41 ) Y5 )  ( <= ( + Y5 44 ) Y2 )  )
( or ( <= ( + X2 7 ) X6 )  ( <= ( + X6 64 ) X2 )  ( <= ( + Y2 41 ) Y6 )  ( <= ( + Y6 84 ) Y2 )  )
( or ( <= ( + X2 7 ) X7 )  ( <= ( + X7 73 ) X2 )  ( <= ( + Y2 41 ) Y7 )  ( <= ( + Y7 60 ) Y2 )  )
( or ( <= ( + X2 7 ) X8 )  ( <= ( + X8 54 ) X2 )  ( <= ( + Y2 41 ) Y8 )  ( <= ( + Y8 15 ) Y2 )  )
( or ( <= ( + X2 7 ) X9 )  ( <= ( + X9 51 ) X2 )  ( <= ( + Y2 41 ) Y9 )  ( <= ( + Y9 20 ) Y2 )  )
( or ( <= ( + X2 7 ) X10 )  ( <= ( + X10 100 ) X2 )  ( <= ( + Y2 41 ) Y10 )  ( <= ( + Y10 8 ) Y2 )  )
( or ( <= ( + X2 7 ) X11 )  ( <= ( + X11 14 ) X2 )  ( <= ( + Y2 41 ) Y11 )  ( <= ( + Y11 11 ) Y2 )  )
( or ( <= ( + X2 7 ) X12 )  ( <= ( + X12 41 ) X2 )  ( <= ( + Y2 41 ) Y12 )  ( <= ( + Y12 10 ) Y2 )  )
( or ( <= ( + X2 7 ) X13 )  ( <= ( + X13 33 ) X2 )  ( <= ( + Y2 41 ) Y13 )  ( <= ( + Y13 67 ) Y2 )  )
( or ( <= ( + X2 7 ) X14 )  ( <= ( + X14 67 ) X2 )  ( <= ( + Y2 41 ) Y14 )  ( <= ( + Y14 85 ) Y2 )  )
( or ( <= ( + X3 79 ) X4 )  ( <= ( + X4 54 ) X3 )  ( <= ( + Y3 86 ) Y4 )  ( <= ( + Y4 78 ) Y3 )  )
( or ( <= ( + X3 79 ) X5 )  ( <= ( + X5 72 ) X3 )  ( <= ( + Y3 86 ) Y5 )  ( <= ( + Y5 44 ) Y3 )  )
( or ( <= ( + X3 79 ) X6 )  ( <= ( + X6 64 ) X3 )  ( <= ( + Y3 86 ) Y6 )  ( <= ( + Y6 84 ) Y3 )  )
( or ( <= ( + X3 79 ) X7 )  ( <= ( + X7 73 ) X3 )  ( <= ( + Y3 86 ) Y7 )  ( <= ( + Y7 60 ) Y3 )  )
( or ( <= ( + X3 79 ) X8 )  ( <= ( + X8 54 ) X3 )  ( <= ( + Y3 86 ) Y8 )  ( <= ( + Y8 15 ) Y3 )  )
( or ( <= ( + X3 79 ) X9 )  ( <= ( + X9 51 ) X3 )  ( <= ( + Y3 86 ) Y9 )  ( <= ( + Y9 20 ) Y3 )  )
( or ( <= ( + X3 79 ) X10 )  ( <= ( + X10 100 ) X3 )  ( <= ( + Y3 86 ) Y10 )  ( <= ( + Y10 8 ) Y3 )  )
( or ( <= ( + X3 79 ) X11 )  ( <= ( + X11 14 ) X3 )  ( <= ( + Y3 86 ) Y11 )  ( <= ( + Y11 11 ) Y3 )  )
( or ( <= ( + X3 79 ) X12 )  ( <= ( + X12 41 ) X3 )  ( <= ( + Y3 86 ) Y12 )  ( <= ( + Y12 10 ) Y3 )  )
( or ( <= ( + X3 79 ) X13 )  ( <= ( + X13 33 ) X3 )  ( <= ( + Y3 86 ) Y13 )  ( <= ( + Y13 67 ) Y3 )  )
( or ( <= ( + X3 79 ) X14 )  ( <= ( + X14 67 ) X3 )  ( <= ( + Y3 86 ) Y14 )  ( <= ( + Y14 85 ) Y3 )  )
( or ( <= ( + X4 54 ) X5 )  ( <= ( + X5 72 ) X4 )  ( <= ( + Y4 78 ) Y5 )  ( <= ( + Y5 44 ) Y4 )  )
( or ( <= ( + X4 54 ) X6 )  ( <= ( + X6 64 ) X4 )  ( <= ( + Y4 78 ) Y6 )  ( <= ( + Y6 84 ) Y4 )  )
( or ( <= ( + X4 54 ) X7 )  ( <= ( + X7 73 ) X4 )  ( <= ( + Y4 78 ) Y7 )  ( <= ( + Y7 60 ) Y4 )  )
( or ( <= ( + X4 54 ) X8 )  ( <= ( + X8 54 ) X4 )  ( <= ( + Y4 78 ) Y8 )  ( <= ( + Y8 15 ) Y4 )  )
( or ( <= ( + X4 54 ) X9 )  ( <= ( + X9 51 ) X4 )  ( <= ( + Y4 78 ) Y9 )  ( <= ( + Y9 20 ) Y4 )  )
( or ( <= ( + X4 54 ) X10 )  ( <= ( + X10 100 ) X4 )  ( <= ( + Y4 78 ) Y10 )  ( <= ( + Y10 8 ) Y4 )  )
( or ( <= ( + X4 54 ) X11 )  ( <= ( + X11 14 ) X4 )  ( <= ( + Y4 78 ) Y11 )  ( <= ( + Y11 11 ) Y4 )  )
( or ( <= ( + X4 54 ) X12 )  ( <= ( + X12 41 ) X4 )  ( <= ( + Y4 78 ) Y12 )  ( <= ( + Y12 10 ) Y4 )  )
( or ( <= ( + X4 54 ) X13 )  ( <= ( + X13 33 ) X4 )  ( <= ( + Y4 78 ) Y13 )  ( <= ( + Y13 67 ) Y4 )  )
( or ( <= ( + X4 54 ) X14 )  ( <= ( + X14 67 ) X4 )  ( <= ( + Y4 78 ) Y14 )  ( <= ( + Y14 85 ) Y4 )  )
( or ( <= ( + X5 72 ) X6 )  ( <= ( + X6 64 ) X5 )  ( <= ( + Y5 44 ) Y6 )  ( <= ( + Y6 84 ) Y5 )  )
( or ( <= ( + X5 72 ) X7 )  ( <= ( + X7 73 ) X5 )  ( <= ( + Y5 44 ) Y7 )  ( <= ( + Y7 60 ) Y5 )  )
( or ( <= ( + X5 72 ) X8 )  ( <= ( + X8 54 ) X5 )  ( <= ( + Y5 44 ) Y8 )  ( <= ( + Y8 15 ) Y5 )  )
( or ( <= ( + X5 72 ) X9 )  ( <= ( + X9 51 ) X5 )  ( <= ( + Y5 44 ) Y9 )  ( <= ( + Y9 20 ) Y5 )  )
( or ( <= ( + X5 72 ) X10 )  ( <= ( + X10 100 ) X5 )  ( <= ( + Y5 44 ) Y10 )  ( <= ( + Y10 8 ) Y5 )  )
( or ( <= ( + X5 72 ) X11 )  ( <= ( + X11 14 ) X5 )  ( <= ( + Y5 44 ) Y11 )  ( <= ( + Y11 11 ) Y5 )  )
( or ( <= ( + X5 72 ) X12 )  ( <= ( + X12 41 ) X5 )  ( <= ( + Y5 44 ) Y12 )  ( <= ( + Y12 10 ) Y5 )  )
( or ( <= ( + X5 72 ) X13 )  ( <= ( + X13 33 ) X5 )  ( <= ( + Y5 44 ) Y13 )  ( <= ( + Y13 67 ) Y5 )  )
( or ( <= ( + X5 72 ) X14 )  ( <= ( + X14 67 ) X5 )  ( <= ( + Y5 44 ) Y14 )  ( <= ( + Y14 85 ) Y5 )  )
( or ( <= ( + X6 64 ) X7 )  ( <= ( + X7 73 ) X6 )  ( <= ( + Y6 84 ) Y7 )  ( <= ( + Y7 60 ) Y6 )  )
( or ( <= ( + X6 64 ) X8 )  ( <= ( + X8 54 ) X6 )  ( <= ( + Y6 84 ) Y8 )  ( <= ( + Y8 15 ) Y6 )  )
( or ( <= ( + X6 64 ) X9 )  ( <= ( + X9 51 ) X6 )  ( <= ( + Y6 84 ) Y9 )  ( <= ( + Y9 20 ) Y6 )  )
( or ( <= ( + X6 64 ) X10 )  ( <= ( + X10 100 ) X6 )  ( <= ( + Y6 84 ) Y10 )  ( <= ( + Y10 8 ) Y6 )  )
( or ( <= ( + X6 64 ) X11 )  ( <= ( + X11 14 ) X6 )  ( <= ( + Y6 84 ) Y11 )  ( <= ( + Y11 11 ) Y6 )  )
( or ( <= ( + X6 64 ) X12 )  ( <= ( + X12 41 ) X6 )  ( <= ( + Y6 84 ) Y12 )  ( <= ( + Y12 10 ) Y6 )  )
( or ( <= ( + X6 64 ) X13 )  ( <= ( + X13 33 ) X6 )  ( <= ( + Y6 84 ) Y13 )  ( <= ( + Y13 67 ) Y6 )  )
( or ( <= ( + X6 64 ) X14 )  ( <= ( + X14 67 ) X6 )  ( <= ( + Y6 84 ) Y14 )  ( <= ( + Y14 85 ) Y6 )  )
( or ( <= ( + X7 73 ) X8 )  ( <= ( + X8 54 ) X7 )  ( <= ( + Y7 60 ) Y8 )  ( <= ( + Y8 15 ) Y7 )  )
( or ( <= ( + X7 73 ) X9 )  ( <= ( + X9 51 ) X7 )  ( <= ( + Y7 60 ) Y9 )  ( <= ( + Y9 20 ) Y7 )  )
( or ( <= ( + X7 73 ) X10 )  ( <= ( + X10 100 ) X7 )  ( <= ( + Y7 60 ) Y10 )  ( <= ( + Y10 8 ) Y7 )  )
( or ( <= ( + X7 73 ) X11 )  ( <= ( + X11 14 ) X7 )  ( <= ( + Y7 60 ) Y11 )  ( <= ( + Y11 11 ) Y7 )  )
( or ( <= ( + X7 73 ) X12 )  ( <= ( + X12 41 ) X7 )  ( <= ( + Y7 60 ) Y12 )  ( <= ( + Y12 10 ) Y7 )  )
( or ( <= ( + X7 73 ) X13 )  ( <= ( + X13 33 ) X7 )  ( <= ( + Y7 60 ) Y13 )  ( <= ( + Y13 67 ) Y7 )  )
( or ( <= ( + X7 73 ) X14 )  ( <= ( + X14 67 ) X7 )  ( <= ( + Y7 60 ) Y14 )  ( <= ( + Y14 85 ) Y7 )  )
( or ( <= ( + X8 54 ) X9 )  ( <= ( + X9 51 ) X8 )  ( <= ( + Y8 15 ) Y9 )  ( <= ( + Y9 20 ) Y8 )  )
( or ( <= ( + X8 54 ) X10 )  ( <= ( + X10 100 ) X8 )  ( <= ( + Y8 15 ) Y10 )  ( <= ( + Y10 8 ) Y8 )  )
( or ( <= ( + X8 54 ) X11 )  ( <= ( + X11 14 ) X8 )  ( <= ( + Y8 15 ) Y11 )  ( <= ( + Y11 11 ) Y8 )  )
( or ( <= ( + X8 54 ) X12 )  ( <= ( + X12 41 ) X8 )  ( <= ( + Y8 15 ) Y12 )  ( <= ( + Y12 10 ) Y8 )  )
( or ( <= ( + X8 54 ) X13 )  ( <= ( + X13 33 ) X8 )  ( <= ( + Y8 15 ) Y13 )  ( <= ( + Y13 67 ) Y8 )  )
( or ( <= ( + X8 54 ) X14 )  ( <= ( + X14 67 ) X8 )  ( <= ( + Y8 15 ) Y14 )  ( <= ( + Y14 85 ) Y8 )  )
( or ( <= ( + X9 51 ) X10 )  ( <= ( + X10 100 ) X9 )  ( <= ( + Y9 20 ) Y10 )  ( <= ( + Y10 8 ) Y9 )  )
( or ( <= ( + X9 51 ) X11 )  ( <= ( + X11 14 ) X9 )  ( <= ( + Y9 20 ) Y11 )  ( <= ( + Y11 11 ) Y9 )  )
( or ( <= ( + X9 51 ) X12 )  ( <= ( + X12 41 ) X9 )  ( <= ( + Y9 20 ) Y12 )  ( <= ( + Y12 10 ) Y9 )  )
( or ( <= ( + X9 51 ) X13 )  ( <= ( + X13 33 ) X9 )  ( <= ( + Y9 20 ) Y13 )  ( <= ( + Y13 67 ) Y9 )  )
( or ( <= ( + X9 51 ) X14 )  ( <= ( + X14 67 ) X9 )  ( <= ( + Y9 20 ) Y14 )  ( <= ( + Y14 85 ) Y9 )  )
( or ( <= ( + X10 100 ) X11 )  ( <= ( + X11 14 ) X10 )  ( <= ( + Y10 8 ) Y11 )  ( <= ( + Y11 11 ) Y10 )  )
( or ( <= ( + X10 100 ) X12 )  ( <= ( + X12 41 ) X10 )  ( <= ( + Y10 8 ) Y12 )  ( <= ( + Y12 10 ) Y10 )  )
( or ( <= ( + X10 100 ) X13 )  ( <= ( + X13 33 ) X10 )  ( <= ( + Y10 8 ) Y13 )  ( <= ( + Y13 67 ) Y10 )  )
( or ( <= ( + X10 100 ) X14 )  ( <= ( + X14 67 ) X10 )  ( <= ( + Y10 8 ) Y14 )  ( <= ( + Y14 85 ) Y10 )  )
( or ( <= ( + X11 14 ) X12 )  ( <= ( + X12 41 ) X11 )  ( <= ( + Y11 11 ) Y12 )  ( <= ( + Y12 10 ) Y11 )  )
( or ( <= ( + X11 14 ) X13 )  ( <= ( + X13 33 ) X11 )  ( <= ( + Y11 11 ) Y13 )  ( <= ( + Y13 67 ) Y11 )  )
( or ( <= ( + X11 14 ) X14 )  ( <= ( + X14 67 ) X11 )  ( <= ( + Y11 11 ) Y14 )  ( <= ( + Y14 85 ) Y11 )  )
( or ( <= ( + X12 41 ) X13 )  ( <= ( + X13 33 ) X12 )  ( <= ( + Y12 10 ) Y13 )  ( <= ( + Y13 67 ) Y12 )  )
( or ( <= ( + X12 41 ) X14 )  ( <= ( + X14 67 ) X12 )  ( <= ( + Y12 10 ) Y14 )  ( <= ( + Y14 85 ) Y12 )  )
( or ( <= ( + X13 33 ) X14 )  ( <= ( + X14 67 ) X13 )  ( <= ( + Y13 67 ) Y14 )  ( <= ( + Y14 85 ) Y13 )  )
( >= X0 0)
( <= ( + X0 48) Z)
( >= Y0 0)
( <= ( + Y0 66 ) 193)
( >= X1 0)
( <= ( + X1 2) Z)
( >= Y1 0)
( <= ( + Y1 49 ) 193)
( >= X2 0)
( <= ( + X2 7) Z)
( >= Y2 0)
( <= ( + Y2 41 ) 193)
( >= X3 0)
( <= ( + X3 79) Z)
( >= Y3 0)
( <= ( + Y3 86 ) 193)
( >= X4 0)
( <= ( + X4 54) Z)
( >= Y4 0)
( <= ( + Y4 78 ) 193)
( >= X5 0)
( <= ( + X5 72) Z)
( >= Y5 0)
( <= ( + Y5 44 ) 193)
( >= X6 0)
( <= ( + X6 64) Z)
( >= Y6 0)
( <= ( + Y6 84 ) 193)
( >= X7 0)
( <= ( + X7 73) Z)
( >= Y7 0)
( <= ( + Y7 60 ) 193)
( >= X8 0)
( <= ( + X8 54) Z)
( >= Y8 0)
( <= ( + Y8 15 ) 193)
( >= X9 0)
( <= ( + X9 51) Z)
( >= Y9 0)
( <= ( + Y9 20 ) 193)
( >= X10 0)
( <= ( + X10 100) Z)
( >= Y10 0)
( <= ( + Y10 8 ) 193)
( >= X11 0)
( <= ( + X11 14) Z)
( >= Y11 0)
( <= ( + Y11 11 ) 193)
( >= X12 0)
( <= ( + X12 41) Z)
( >= Y12 0)
( <= ( + Y12 10 ) 193)
( >= X13 0)
( <= ( + X13 33) Z)
( >= Y13 0)
( <= ( + Y13 67 ) 193)
( >= X14 0)
( <= ( + X14 67) Z)
( >= Y14 0)
( <= ( + Y14 85 ) 193)
) )
)(=> $phi $goal))))